n_res = 4;
rc = [ 13, 12, 10, 14 ];
n_tasks = 30;
d = [ 10, 2, 4, 7, 2, 9, 1, 2, 8, 3, 6, 4, 6, 6, 6, 6, 2, 9, 3, 3, 8, 8, 10, 1, 8, 2, 10, 3, 4, 4 ];
rr = [| 1, 9, 0, 0, 8, 5, 0, 0, 0, 0, 0, 5, 0, 0, 8, 0, 6, 0, 0, 7, 4, 0, 0, 7, 0, 0, 0, 0, 0, 9
      | 0, 0, 0, 0, 0, 0, 9, 0, 0, 4, 10, 0, 0, 0, 0, 3, 0, 9, 0, 0, 0, 0, 0, 0, 0, 9, 0, 0, 5, 0
      | 0, 0, 0, 10, 0, 0, 0, 4, 0, 0, 0, 0, 10, 0, 0, 0, 0, 0, 0, 0, 0, 0, 4, 0, 1, 0, 0, 0, 0, 0
      | 0, 0, 7, 0, 0, 0, 0, 0, 7, 0, 0, 0, 0, 7, 0, 0, 0, 0, 1, 0, 0, 6, 0, 0, 0, 0, 5, 6, 0, 0 |];
suc = [ { 2 }, 
        { 3 }, 
        { 4 }, 
        { 5 }, 
        { 6 }, 
        { 7 }, 
        { 8 }, 
        { 9 }, 
        { 10 }, 
        { 11 }, 
        { 12 }, 
        { 13 }, 
        { 14 }, 
        { 15 }, 
        { 16 }, 
        { 17 }, 
        { 18 }, 
        { 19 }, 
        { 20 }, 
        { 21 }, 
        { 22 }, 
        { 23 }, 
        { 24 }, 
        { 25 }, 
        { 26 }, 
        { 27 }, 
        { 28 }, 
        { 29 }, 
        { 30 }, 
        {  }]; 
